c --- [ banner ] -------------------------------------------------------------
c 
c CaDiCaL Radically Simplified CDCL SAT Solver
c Copyright (c) 2016-2021 A. Biere, M. Fleury, N. Froleyks
c 
c Version 1.5.2 9c38a080b32c28d805e8e6ca21849856b0cda605
c g++ (Ubuntu 7.5.0-3ubuntu1~18.04) 7.5.0 -Wall -Wextra -O3 -DNDEBUG
c Wed Feb 16 23:15:36 EST 2022 Linux fac-vanhoeve01 5.4.0-99-generic x86_64
c 
c --- [ limit ] --------------------------------------------------------------
c 
c setting time limit to 600 seconds real time (due to '-t 600')
c setting conflict limit to 1000000000 conflicts (due to '1000000000')
c 
c --- [ parsing input ] ------------------------------------------------------
c 
c reading DIMACS file from 'ddfwcnfs/DSJR500.5.col_122.cnf'
c opening file to read 'ddfwcnfs/DSJR500.5.col_122.cnf'
c found 'p cnf 61000 3886444' header
c parsed 3886444 clauses in 2.47 seconds process time
c closing file 'ddfwcnfs/DSJR500.5.col_122.cnf'
c after reading 60891054 bytes 58.1 MB
c 
c --- [ options ] ------------------------------------------------------------
c 
c all options are set to their default value
c 
c --- [ solving ] ------------------------------------------------------------
c 
c time measured in process time since initialization
c 
c  seconds   reductions  redundant   irredundant
c          MB    restarts       trail        variables
c           level   conflicts       glue          remaining
c 
c *  2.47 324  0 0   0    0    0  0% 0 3849352 45915 75%
c {  2.48 325  0 0   0    0    0  0% 0 3849352 45915 75%
c -  3.47 325 54 1  44  301  214 42% 31 3848260 45915 75%
c }  4.17 325 84 1 179 1000  754 49% 46 3848260 45915 75%
c [  4.17 325  0 1 179 1000  754  0% 0 3848260 45915 75%
c O  4.17 325 170 1 179 1002  756 54% 19 3848260 45915 75%
c -  6.65 414 36 2 179 1852 1191 34% 26 3848260 45915 75%
c ]  6.79 414 43 2 180 3001 2093 34% 32 3848260 45915 75%
c {  6.79 414 84 2 180 3001 2093 49% 46 3848260 45915 75%
c F  9.22 406 84 2 180 3003 2095  6% 46 3848260 45915 75%
c - 11.49 436 82 3 199 4179 2333 29% 42 3848260 45915 75%
c p 14.96 436 74 3 200 5002 2882 28% 42 3848260 45915 75%
c # 16.03 436 71 3 250 6005 3504 28% 42 3848260 45915 75%
c } 16.26 436 73 3 250 7001 4312 27% 40 3848260 45915 75%
c [ 16.26 436 43 3 250 7001 4312 46% 32 3848260 45915 75%
c - 18.13 436 43 4 251 7282 2765 41% 31 3848260 45915 75%
c I 18.48 436 45 4 252 10008 4767 25% 31 3848260 45915 75%
c - 20.72 436 1161 5 253 11159 3877 33% 35 3848260 45915 75%
c s 22.56 436 1009 5 254 12783 5148 34% 40 3848260 45915 75%
c e 29.85 480 1009 5 254 12783 1364 34% 40 1587248 25788 42%
c 
c  seconds     reductions   redundant    irredundant
c          MB      restarts        trail         variables
c            level     conflicts       glue           remaining
c 
c s 30.20 480 1009 5 254 12783 1353 34% 40 1587248 25788 42%
c ^ 30.68 480 1009 5 254 12783 1353 34% 40 1587248 25788 42%
c ] 32.40 400 814 5 255 15002 2920 44% 49 1587248 25788 42%
c { 32.40 400 73 5 255 15002 2920 48% 40 1587248 25788 42%
c p 33.69 400 73 5 255 15002 2989 48% 40 1587248 25788 42%
c B 34.02 400 78 5 255 15010 2997 48% 40 1587248 25788 42%
c - 35.08 401 82 6 456 15812 2786 45% 42 1587248 25788 42%
c - 37.01 401 88 7 949 20434 4552 40% 44 1587248 25788 42%
c W 37.91 401 89 7 980 21013 5048 39% 44 1587248 25788 42%
c - 39.61 401 202 8 1486 25716 5413 36% 44 1587248 25788 42%
c F 40.07 401 183 8 2014 28017 7114 34% 46 1587248 25788 42%
c p 41.62 401 166 8 2016 30002 9251 32% 43 1587248 25788 42%
c } 42.07 401 159 8 2016 31006 10034 31% 42 1587248 25788 42%
c [ 42.07 401 814 8 2016 31006 10034 44% 49 1587248 25788 42%
c - 42.90 401 764 9 2016 31657 6001 37% 48 1587248 25788 42%
c B 43.44 401 541 9 2019 36018 9392 25% 42 1587248 25788 42%
c s 43.68 401 547 9 2019 36559 9502 25% 43 1587248 25788 42%
c s 45.98 401 547 9 2019 36559 9364 25% 43 1587248 25788 42%
c ^ 46.32 401 547 9 2019 36559 9364 25% 43 1587248 25788 42%
c - 47.44 402 507 10 2020 38259 7795 26% 46 1587248 25788 42%
c 
c  seconds    reductions      redundant    irredundant
c          MB      restarts          trail         variables
c            level      conflicts        glue           remaining
c 
c W 49.49 402 394 10 2023 45020 12857 25% 55 1587248 25788 42%
c - 50.34 402 387 11 2023 45523 7825 25% 55 1587248 25788 42%
c 2 52.21 402 336 11 2024 50003 10789 25% 57 1587248 25788 42%
c p 52.53 402 336 11 2024 50003 12896 25% 57 1587248 25788 42%
c - 54.33 402 324 12 2024 53450 8123 25% 59 1587248 25788 42%
c O 54.63 402 314 12 2025 55021 9302 26% 59 1587248 25788 42%
c - 56.43 401 263 13 2030 62032 7154 27% 58 1587248 25788 42%
c ] 56.57 401 258 13 2031 63006 7902 27% 57 1587248 25788 42%
c { 56.57 401 159 13 2031 63006 7902 31% 42 1587248 25788 42%
c B 57.25 401 148 13 2413 66024 10190 31% 43 1587248 25788 42%
c - 59.02 401 129 14 3002 71274 8479 31% 43 1587248 25788 42%
c s 59.30 401 127 14 3229 72227 9177 31% 44 1587248 25788 42%
c e 61.49 401 127 14 3229 72227 9177 31% 44 1587250 25787 42%
c s 61.54 401 127 14 3229 72227 9175 31% 44 1587250 25787 42%
c p 64.15 401 120 14 3918 75003 14737 31% 45 1587250 25787 42%
c W 65.95 401 114 14 4649 78025 15790 30% 46 1587250 25787 42%
c - 67.33 402 152 15 4652 81176 8137 30% 45 1587250 25787 42%
c # 69.25 402 149 15 5152 91027 14003 31% 45 1587250 25787 42%
c - 70.11 402 148 16 5152 91739 9070 31% 45 1587250 25787 42%
c - 72.63 402 130 17 5299 102962 11372 30% 44 1587250 25787 42%
c 
c  seconds    reductions       redundant    irredundant
c          MB      restarts           trail         variables
c            level      conflicts         glue           remaining
c 
c p 74.30 402 126 17 5368 105003 14055 30% 44 1587250 25787 42%
c B 74.64 402 126 17 5374 105028 14074 30% 44 1587250 25787 42%
c - 77.41 402 117 18 6389 114845 11995 31% 46 1587250 25787 42%
c W 80.11 402 113 18 6901 120030 15923 31% 46 1587250 25787 42%
c } 81.40 402 110 18 6964 127007 21038 32% 46 1587250 25787 42%
c [ 81.40 402 258 18 6964 127007 21038 27% 57 1587250 25787 42%
c - 82.25 403 257 19 6964 127388 12756 27% 58 1587250 25787 42%
c B 83.79 403 232 19 6969 136034 19457 28% 62 1587250 25787 42%
c p 86.08 403 234 19 6971 140005 28015 28% 61 1587250 25787 42%
c - 87.28 404 233 20 6971 140591 14254 28% 61 1587250 25787 42%
c W 91.49 404 199 20 6973 153041 23951 30% 65 1587250 25787 42%
c - 92.55 404 196 21 6973 154455 15152 30% 65 1587250 25787 42%
c - 95.89 404 187 22 6975 168983 14468 32% 70 1587250 25787 42%
c I 96.31 404 185 22 6976 171044 15795 32% 71 1587250 25787 42%
c p 99.90 404 310 22 6980 180006 24738 32% 73 1587250 25787 42%
c - 101.96 406 296 23 6983 184167 16089 33% 71 1587250 25787 42%
c B 103.31 406 286 23 6987 190047 20575 34% 71 1587250 25787 42%
c - 106.68 407 269 24 6988 200012 16341 35% 73 1587250 25787 42%
c W 111.69 407 250 24 6995 210048 23990 36% 74 1587250 25787 42%
c - 113.72 408 249 25 6998 216516 18250 36% 73 1587250 25787 42%
c 
c  seconds     reductions       redundant    irredundant
c           MB      restarts           trail         variables
c             level      conflicts         glue           remaining
c 
c p 116.64 408 236 25 7002 225006 25967 35% 73 1587250 25787 42%
c O 118.11 408 228 25 7003 231049 30899 34% 74 1587250 25787 42%
c - 119.23 407 222 26 7003 233681 19525 34% 72 1587250 25787 42%
c - 122.38 402 186 27 7005 251507 18613 30% 64 1587250 25787 42%
c B 122.64 402 183 27 7005 253051 19778 29% 63 1587250 25787 42%
c ] 123.21 402 421 27 7005 255009 21425 31% 66 1587250 25787 42%
c { 123.21 402 110 27 7005 255009 21425 32% 46 1587250 25787 42%
c - 126.78 404 103 28 8202 269992 19010 33% 46 1587250 25787 42%
c p 128.93 404 99 28 8212 275006 30037 32% 46 1587250 25787 42%
c F 129.40 404 98 28 8212 276052 30738 32% 45 1587250 25787 42%
c - 131.57 402 92 29 8212 289138 20537 29% 42 1587250 25787 42%
c B 132.79 402 89 29 8212 300054 28919 27% 41 1587250 25787 42%
c - 135.28 403 88 30 9300 308944 20903 27% 42 1587250 25787 42%
c W 140.84 403 85 30 10265 325055 32282 27% 40 1587250 25787 42%
c - 142.28 403 89 31 10598 329412 20118 28% 40 1587250 25787 42%
c s 142.42 403 89 31 10598 329412 19902 28% 40 1587250 25787 42%
c w 143.76 403 89 31 10598 329412 19853 28% 40 1587250 25787 42%
c 2 145.38 403 89 31 10648 330008 20320 28% 40 1587250 25787 42%
c p 145.65 403 89 31 10648 330008 23995 28% 40 1587250 25787 42%
c - 151.35 405 84 32 12539 350540 22472 29% 42 1587250 25787 42%
c 
c  seconds    reductions        redundant    irredundant
c           MB      restarts           trail         variables
c            level       conflicts         glue           remaining
c 
c # 151.45 405 83 32 12539 351056 22900 29% 42 1587250 25787 42%
c - 154.82 404 79 33 12543 372326 23700 27% 40 1587250 25787 42%
c B 155.58 404 77 33 12547 378057 28198 27% 40 1587250 25787 42%
c p 159.70 404 77 33 14119 390017 37539 28% 40 1587250 25787 42%
c - 161.71 404 77 34 14243 394773 23752 28% 40 1587250 25787 42%
c W 167.34 404 79 34 14545 406059 31438 28% 40 1587250 25787 42%
c - 169.82 403 75 35 14772 417880 20727 29% 40 1587250 25787 42%
c F 172.20 403 70 35 15055 435060 29937 30% 40 1587250 25787 42%
c - 173.88 402 72 36 15055 441650 21184 29% 39 1587250 25787 42%
c p 177.81 402 70 36 16559 455020 38107 29% 39 1587250 25787 42%
c B 179.70 402 70 36 16829 465062 45095 30% 39 1587250 25787 42%
c - 180.81 403 70 37 17035 466078 22467 30% 39 1587250 25787 42%
c - 185.15 403 76 38 17389 491166 23503 28% 36 1587250 25787 42%
c W 190.12 403 79 38 17400 496063 27239 28% 36 1587250 25787 42%
c } 193.48 403 78 38 20697 511013 35562 29% 38 1587250 25787 42%
c [ 193.48 403 421 38 20697 511013 35562 31% 66 1587250 25787 42%
c - 195.19 404 396 39 20697 516914 23541 30% 65 1587250 25787 42%
c p 198.19 404 366 39 20697 525025 33948 29% 63 1587250 25787 42%
c W 203.94 404 397 39 20697 528064 36398 29% 63 1587250 25787 42%
c - 207.61 408 357 40 20700 543324 27921 28% 67 1587250 25787 42%
c 
c  seconds     reductions        redundant    irredundant
c           MB       restarts           trail         variables
c             level       conflicts         glue           remaining
c 
c I 211.25 408 307 40 20710 561066 40407 30% 67 1587250 25787 42%
c - 214.16 409 302 41 20712 570393 27632 30% 65 1587250 25787 42%
c B 219.39 409 268 41 20726 595072 46347 31% 64 1587250 25787 42%
c - 220.66 410 305 42 20726 598122 28967 31% 65 1587250 25787 42%
c p 222.63 410 305 42 20727 600027 31886 31% 65 1587250 25787 42%
c - 230.41 415 254 43 20731 626511 30254 30% 66 1587250 25787 42%
c W 236.51 415 249 43 20734 630073 32908 30% 67 1587250 25787 42%
c - 243.59 415 215 44 20743 655561 31869 29% 69 1587250 25787 42%
c s 243.71 415 215 44 20743 655561 31644 29% 69 1587250 25787 42%
c w 245.08 415 215 44 20743 655561 31621 29% 69 1587250 25787 42%
c O 247.68 415 202 44 20750 666076 38736 29% 69 1587250 25787 42%
c 2 252.30 415 183 44 20757 680027 49368 30% 67 1587250 25787 42%
c p 252.71 415 183 44 20757 680027 57806 30% 67 1587250 25787 42%
c - 255.13 408 177 45 20758 685269 31716 30% 66 1587250 25787 42%
c B 259.26 408 160 45 20759 703082 45594 32% 65 1587250 25787 42%
c - 262.47 410 158 46 20760 715639 31760 32% 69 1587250 25787 42%
c W 274.40 410 149 46 20761 741084 50097 33% 74 1587250 25787 42%
c - 276.78 411 146 47 20761 746668 31398 34% 75 1587250 25787 42%
c p 283.15 411 140 47 20761 765028 48102 34% 78 1587250 25787 42%
c - 288.68 361 134 48 20761 778358 32227 35% 77 1587250 25787 42%
c 
c  seconds     reductions        redundant    irredundant
c           MB       restarts           trail         variables
c             level       conflicts         glue           remaining
c 
c I 289.08 361 133 48 20761 780088 33599 35% 77 1587250 25787 42%
c - 297.27 415 605 49 20766 810709 35895 35% 82 1587250 25787 42%
c B 299.62 415 570 49 20771 820090 42968 35% 82 1587250 25787 42%
c - 304.44 361 497 50 20780 843718 35816 34% 79 1587250 25787 42%
c p 308.16 361 457 50 20786 855029 46022 33% 77 1587250 25787 42%
c W 316.34 361 438 50 20790 861093 50720 33% 76 1587250 25787 42%
c - 319.23 412 404 51 20792 877389 37209 31% 72 1587250 25787 42%
c O 323.49 412 375 51 20802 903095 56113 31% 68 1587250 25787 42%
c - 325.58 361 349 52 20806 911720 36142 30% 65 1587250 25787 42%
c B 331.60 361 271 52 20821 946097 61589 29% 63 1587250 25787 42%
c - 332.32 411 274 53 20822 946712 36038 29% 63 1587250 25787 42%
c p 333.87 411 274 53 20822 950031 47153 29% 62 1587250 25787 42%
c - 339.49 361 219 54 20824 982363 37317 28% 61 1587250 25787 42%
c W 346.82 361 208 54 20824 990100 43115 28% 61 1587250 25787 42%
c - 352.77 410 178 55 20833 1018673 40510 29% 62 1587250 25787 42%
c s 352.91 410 178 55 20833 1018673 40402 29% 62 1587250 25787 42%
c ] 355.14 410 211 55 20836 1023020 43749 30% 62 1587250 25787 42%
c { 355.14 410 78 55 20836 1023020 43749 29% 38 1587250 25787 42%
c # 357.31 410 78 55 23444 1035101 51463 29% 40 1587250 25787 42%
c p 359.78 410 78 55 23496 1050031 64902 27% 38 1587250 25787 42%
c 
c  seconds    reductions         redundant    irredundant
c           MB      restarts            trail         variables
c            level        conflicts         glue           remaining
c 
c - 361.15 361 78 56 23496 1055644 36199 27% 38 1587250 25787 42%
c B 364.98 361 77 56 25539 1081104 53663 27% 37 1587250 25787 42%
c - 367.64 407 75 57 28466 1093275 36844 28% 39 1587250 25787 42%
c W 378.99 407 69 57 36944 1128108 49679 31% 42 1587250 25787 42%
c - 379.99 361 68 58 37663 1131567 24516 31% 43 1587250 25787 42%
c p 383.95 361 64 58 41372 1155034 34553 32% 44 1587250 25787 42%
c - 386.71 403 62 59 43105 1170520 21837 33% 44 1587250 25787 42%
c F 387.35 403 62 59 43793 1176110 23950 33% 45 1587250 25787 42%
c - 391.07 361 70 60 43793 1210131 36366 30% 38 1587250 25787 42%
c B 392.64 361 73 60 43793 1225113 48171 28% 37 1587250 25787 42%
c - 397.40 406 72 61 46758 1250403 38203 29% 37 1587250 25787 42%
c p 400.42 406 68 61 46792 1265034 56551 29% 37 1587250 25787 42%
c W 409.75 406 66 61 46804 1275115 63429 29% 37 1587250 25787 42%
c - 412.40 361 62 62 46837 1291336 38723 29% 36 1587250 25787 42%
c # 417.63 361 54 62 46845 1326117 59419 29% 35 1587250 25787 42%
c - 419.19 406 55 63 47212 1332931 38994 29% 34 1587250 25787 42%
c - 426.61 361 55 64 56379 1375184 31492 28% 39 1587250 25787 42%
c B 427.07 361 55 64 57050 1378118 32961 28% 40 1587250 25787 42%
c p 428.49 361 55 64 57487 1380034 38831 28% 40 1587250 25787 42%
c - 435.55 407 59 65 62130 1418097 36497 30% 41 1587250 25787 42%
c 
c  seconds    reductions         redundant    irredundant
c           MB      restarts            trail         variables
c            level        conflicts         glue           remaining
c 
c W 446.31 407 61 65 62176 1431119 46889 31% 41 1587250 25787 42%
c - 451.80 361 61 66 65627 1461670 42478 31% 41 1587250 25787 42%
c s 452.00 361 61 66 65627 1461670 42218 31% 41 1587250 25787 42%
c F 456.63 361 59 66 69224 1485121 54280 30% 42 1587250 25787 42%
c p 458.95 361 64 66 69225 1500035 66865 28% 39 1587250 25787 42%
c - 460.45 406 63 67 69225 1505902 41715 27% 39 1587250 25787 42%
c B 465.36 406 59 67 69225 1540125 68852 24% 35 1587250 25787 42%
c - 468.16 361 60 68 71301 1550797 46062 25% 36 1587250 25787 42%
c W 485.52 361 72 68 77249 1596129 77439 28% 38 1587250 25787 42%
c - 486.24 409 72 69 77297 1596350 44351 28% 38 1587250 25787 42%
c p 492.44 409 70 69 83187 1625039 73619 27% 41 1587250 25787 42%
c - 497.11 361 69 70 87080 1642566 46346 27% 43 1587250 25787 42%
c # 499.41 361 69 70 89499 1653130 54322 26% 44 1587250 25787 42%
c - 503.82 410 64 71 90562 1689439 41743 25% 45 1587250 25787 42%
c B 506.29 410 61 71 91165 1711131 55427 25% 45 1587250 25787 42%
c - 510.90 361 63 72 91539 1736973 45648 27% 44 1587250 25787 42%
c p 514.81 361 63 72 91648 1755041 62164 28% 44 1587250 25787 42%
c W 527.36 361 62 72 91758 1770133 71318 28% 44 1587250 25787 42%
c - 530.08 408 60 73 91855 1785169 42744 28% 44 1587250 25787 42%
c F 537.40 408 58 73 97855 1830136 74513 31% 45 1587250 25787 42%
c 
c  seconds    reductions         redundant    irredundant
c           MB      restarts            trail         variables
c            level        conflicts         glue           remaining
c 
c - 538.34 361 59 74 97855 1834025 47212 31% 45 1587250 25787 42%
c - 543.70 407 50 75 97861 1883541 50015 25% 38 1587250 25787 42%
c p 545.45 407 50 75 97923 1890045 55740 24% 38 1587250 25787 42%
c B 545.82 407 50 75 97923 1891138 56459 24% 38 1587250 25787 42%
c - 553.04 361 50 76 101713 1933715 45913 27% 40 1587250 25787 42%
c W 566.75 361 49 76 102120 1953139 55755 29% 40 1587250 25787 42%
c - 572.70 406 47 77 102261 1984549 40540 31% 40 1587250 25787 42%
c s 572.84 406 47 77 102261 1984549 40429 31% 40 1587250 25787 42%
c w 573.87 406 47 77 102261 1984549 40392 31% 40 1587250 25787 42%
c # 579.28 406 46 77 102415 2016140 57563 32% 40 1587250 25787 42%
c p 582.35 406 50 77 103927 2030046 75692 32% 40 1587250 25787 42%
c - 583.91 361 55 78 104137 2036045 43070 32% 39 1587250 25787 42%
c } 585.32 361 57 78 104431 2047020 50132 32% 39 1587250 25787 42%
c [ 585.32 361 211 78 104431 2047020 50132 30% 62 1587250 25787 42%
c I 590.05 361 206 78 104446 2080143 74431 33% 58 1587250 25787 42%
c - 592.18 414 212 79 104449 2088200 49408 34% 59 1587250 25787 42%
c ] 599.86 414 212 79 104458 2124946 75680 35% 72 1587250 25787 42%
c ? 599.86 414 212 79 104458 2124946 75680 35% 72 1587250 25787 42%
c 
c --- [ result ] -------------------------------------------------------------
c 
c UNKNOWN
c 
c --- [ run-time profiling ] -------------------------------------------------
c 
c process time taken by individual solving procedures
c (percentage relative to process time for solving)
c 
c       530.25   88.76% search
c       241.46   40.42% unstable
c       187.32   31.36% stable
c       101.46   16.98% walk
c        67.14   11.24% simplify
c        17.78    2.98% ternary
c         8.99    1.50% vivify
c         8.20    1.37% probe
c         5.51    0.92% elim
c         2.87    0.48% subsume
c         2.47    0.41% parse
c         0.01    0.00% lucky
c   =================================
c       597.39   99.59% solve
c 
c last line shows process time for solving
c (percentage relative to total process time)
c 
c --- [ statistics ] ---------------------------------------------------------
c 
c chronological:            473536        22.28 %  of conflicts
c conflicts:               2124946      3557.03    per second
c decisions:               3682998      6165.11    per second
c eliminated:                20128        33.00 %  of all variables
c fixed:                     15085        24.73 %  of all variables
c learned:                 2087015        98.21 %  per conflict
c learned_lits:          358204369       100.00 %  learned literals
c minimized:                     0         0.00 %  learned literals
c shrunken:              171418127        47.85 %  learned literals
c minishrunken:           15399960         4.30 %  learned literals
c propagations:          750513188         1.26 M  per second
c reduced:                 1376713        64.79 %  per conflict
c rephased:                     64     33202.28    interval
c restarts:                 104458        20.34    interval
c stabilizing:                   6        35.76 %  of conflicts
c subsumed:                 630618         5.21 %  of all clauses
c strengthened:              10399         0.09 %  of all clauses
c vivified:                    275         0.00 %  of all clauses
c walked:                       20    106247.30    interval
c weakened:                2269825         2.01    average size
c 
c seconds are measured in process time for solving
c 
c --- [ resources ] ----------------------------------------------------------
c 
c total process time since initialization:       599.86    seconds
c total real time since initialization:          600.00    seconds
c maximum resident set size of process:          553.62    MB
c 
c --- [ shutting down ] ------------------------------------------------------
c 
c exit 0
